(set-info :smt-lib-version 2.6)
(set-logic UF)
(set-info :source |Benchmarks from the paper: "Extending Sledgehammer with SMT Solvers" by Jasmin Blanchette, Sascha Bohme, and Lawrence C. Paulson, CADE 2011.  Translated to SMT2 by Andrew Reynolds and Morgan Deters.|)
(set-info :category "industrial")
(set-info :status unsat)
(declare-sort S1 0)
(declare-sort S2 0)
(declare-sort S3 0)
(declare-sort S4 0)
(declare-sort S5 0)
(declare-sort S6 0)
(declare-sort S7 0)
(declare-sort S8 0)
(declare-sort S9 0)
(declare-sort S10 0)
(declare-sort S11 0)
(declare-sort S12 0)
(declare-sort S13 0)
(declare-sort S14 0)
(declare-sort S15 0)
(declare-sort S16 0)
(declare-sort S17 0)
(declare-sort S18 0)
(declare-sort S19 0)
(declare-sort S20 0)
(declare-sort S21 0)
(declare-sort S22 0)
(declare-sort S23 0)
(declare-sort S24 0)
(declare-sort S25 0)
(declare-sort S26 0)
(declare-sort S27 0)
(declare-sort S28 0)
(declare-sort S29 0)
(declare-sort S30 0)
(declare-sort S31 0)
(declare-sort S32 0)
(declare-sort S33 0)
(declare-sort S34 0)
(declare-sort S35 0)
(declare-sort S36 0)
(declare-sort S37 0)
(declare-sort S38 0)
(declare-sort S39 0)
(declare-sort S40 0)
(declare-sort S41 0)
(declare-sort S42 0)
(declare-sort S43 0)
(declare-sort S44 0)
(declare-sort S45 0)
(declare-sort S46 0)
(declare-sort S47 0)
(declare-sort S48 0)
(declare-sort S49 0)
(declare-sort S50 0)
(declare-sort S51 0)
(declare-sort S52 0)
(declare-sort S53 0)
(declare-sort S54 0)
(declare-sort S55 0)
(declare-sort S56 0)
(declare-sort S57 0)
(declare-sort S58 0)
(declare-sort S59 0)
(declare-fun f1 () S1)
(declare-fun f2 () S1)
(declare-fun f3 (S3 S2) S2)
(declare-fun f4 (S4 S2) S3)
(declare-fun f5 () S4)
(declare-fun f6 () S2)
(declare-fun f7 (S6 S5) S5)
(declare-fun f8 (S7 S5) S6)
(declare-fun f9 () S7)
(declare-fun f10 () S5)
(declare-fun f11 (S9 S8) S8)
(declare-fun f12 (S10 S8) S9)
(declare-fun f13 () S10)
(declare-fun f14 () S8)
(declare-fun f15 (S12 S11) S11)
(declare-fun f16 (S13 S11) S12)
(declare-fun f17 () S13)
(declare-fun f18 () S11)
(declare-fun f19 (S15 S14) S14)
(declare-fun f20 (S16 S14) S15)
(declare-fun f21 () S16)
(declare-fun f22 () S14)
(declare-fun f23 (S18 S17) S17)
(declare-fun f24 (S19 S17) S18)
(declare-fun f25 () S19)
(declare-fun f26 () S17)
(declare-fun f27 (S21 S20) S20)
(declare-fun f28 (S22 S20) S21)
(declare-fun f29 () S22)
(declare-fun f30 () S20)
(declare-fun f31 (S23 S2) S9)
(declare-fun f32 () S23)
(declare-fun f33 (S5 S24) S24)
(declare-fun f34 () S24)
(declare-fun f35 (S25 S8) S21)
(declare-fun f36 () S25)
(declare-fun f37 (S26 S11) S18)
(declare-fun f38 () S26)
(declare-fun f39 (S27 S28) S28)
(declare-fun f40 () S27)
(declare-fun f41 () S28)
(declare-fun f42 (S29 S30) S30)
(declare-fun f43 (S31 S14) S29)
(declare-fun f44 () S31)
(declare-fun f45 () S30)
(declare-fun f46 (S32 S33) S33)
(declare-fun f47 () S32)
(declare-fun f48 () S33)
(declare-fun f49 (S28 S32) S32)
(declare-fun f50 (S34 S17) S15)
(declare-fun f51 () S34)
(declare-fun f52 (S24 S27) S27)
(declare-fun f53 (S35 S20) S12)
(declare-fun f54 () S35)
(declare-fun f55 (S36 S8) S3)
(declare-fun f56 () S36)
(declare-fun f57 (S37 S8) S5)
(declare-fun f58 (S38 S2) S37)
(declare-fun f59 () S38)
(declare-fun f60 (S39 S20) S9)
(declare-fun f61 () S39)
(declare-fun f62 (S40 S20) S5)
(declare-fun f63 (S41 S8) S40)
(declare-fun f64 () S41)
(declare-fun f65 (S42 S17) S12)
(declare-fun f66 () S42)
(declare-fun f67 (S43 S17) S5)
(declare-fun f68 (S44 S11) S43)
(declare-fun f69 () S44)
(declare-fun f70 (S45 S30) S15)
(declare-fun f71 () S45)
(declare-fun f72 (S46 S30) S5)
(declare-fun f73 (S47 S14) S46)
(declare-fun f74 () S47)
(declare-fun f75 (S48 S14) S18)
(declare-fun f76 () S48)
(declare-fun f77 (S49 S14) S5)
(declare-fun f78 (S50 S17) S49)
(declare-fun f79 () S50)
(declare-fun f80 (S51 S11) S21)
(declare-fun f81 () S51)
(declare-fun f82 (S52 S11) S5)
(declare-fun f83 (S53 S20) S52)
(declare-fun f84 () S53)
(declare-fun f85 () S37)
(declare-fun f86 () S52)
(declare-fun f87 (S54 S27) S5)
(declare-fun f88 () S54)
(declare-fun f89 () S49)
(declare-fun f90 (S55 S32) S5)
(declare-fun f91 () S55)
(declare-fun f92 (S56 S28) S5)
(declare-fun f93 () S56)
(declare-fun f94 () S43)
(declare-fun f95 (S57 S24) S5)
(declare-fun f96 () S57)
(declare-fun f97 () S40)
(declare-fun f98 () S6)
(declare-fun f99 () S4)
(declare-fun f100 () S8)
(declare-fun f101 (S58 S5) S2)
(declare-fun f102 (S59 S2) S58)
(declare-fun f103 () S59)
(declare-fun f104 (S5 S5) S1)
(assert (not (= f1 f2)))
(assert (forall ((?v0 S2) (?v1 S2)) (= (= ?v0 (f3 (f4 f5 ?v0) ?v1)) (= ?v1 f6))))
(assert (forall ((?v0 S5) (?v1 S5)) (= (= ?v0 (f7 (f8 f9 ?v0) ?v1)) (= ?v1 f10))))
(assert (forall ((?v0 S8) (?v1 S8)) (= (= ?v0 (f11 (f12 f13 ?v0) ?v1)) (= ?v1 f14))))
(assert (forall ((?v0 S11) (?v1 S11)) (= (= ?v0 (f15 (f16 f17 ?v0) ?v1)) (= ?v1 f18))))
(assert (forall ((?v0 S14) (?v1 S14)) (= (= ?v0 (f19 (f20 f21 ?v0) ?v1)) (= ?v1 f22))))
(assert (forall ((?v0 S17) (?v1 S17)) (= (= ?v0 (f23 (f24 f25 ?v0) ?v1)) (= ?v1 f26))))
(assert (forall ((?v0 S20) (?v1 S20)) (= (= ?v0 (f27 (f28 f29 ?v0) ?v1)) (= ?v1 f30))))
(assert (= (f11 (f31 f32 f6) f14) f14))
(assert (= (f33 f10 f34) f34))
(assert (= (f27 (f35 f36 f14) f30) f30))
(assert (= (f23 (f37 f38 f18) f26) f26))
(assert (= (f39 f40 f41) f41))
(assert (= (f42 (f43 f44 f22) f45) f45))
(assert (= (f46 f47 f48) f48))
(assert (= (f49 f41 f47) f47))
(assert (= (f19 (f50 f51 f26) f22) f22))
(assert (= (f52 f34 f40) f40))
(assert (= (f15 (f53 f54 f30) f18) f18))
(assert (forall ((?v0 S8) (?v1 S2)) (= (= (f3 (f55 f56 ?v0) ?v1) f6) (or (= ?v0 f14) (not (= (f57 (f58 f59 ?v1) ?v0) f10))))))
(assert (forall ((?v0 S20) (?v1 S8)) (= (= (f11 (f60 f61 ?v0) ?v1) f14) (or (= ?v0 f30) (not (= (f62 (f63 f64 ?v1) ?v0) f10))))))
(assert (forall ((?v0 S17) (?v1 S11)) (= (= (f15 (f65 f66 ?v0) ?v1) f18) (or (= ?v0 f26) (not (= (f67 (f68 f69 ?v1) ?v0) f10))))))
(assert (forall ((?v0 S30) (?v1 S14)) (= (= (f19 (f70 f71 ?v0) ?v1) f22) (or (= ?v0 f45) (not (= (f72 (f73 f74 ?v1) ?v0) f10))))))
(assert (forall ((?v0 S14) (?v1 S17)) (= (= (f23 (f75 f76 ?v0) ?v1) f26) (or (= ?v0 f22) (not (= (f77 (f78 f79 ?v1) ?v0) f10))))))
(assert (forall ((?v0 S11) (?v1 S20)) (= (= (f27 (f80 f81 ?v0) ?v1) f30) (or (= ?v0 f18) (not (= (f82 (f83 f84 ?v1) ?v0) f10))))))
(assert (= (f57 f85 f14) f10))
(assert (= (f82 f86 f18) f10))
(assert (= (f87 f88 f40) f10))
(assert (= (f77 f89 f22) f10))
(assert (= (f90 f91 f47) f10))
(assert (= (f92 f93 f41) f10))
(assert (= (f67 f94 f26) f10))
(assert (= (f95 f96 f34) f10))
(assert (= (f62 f97 f30) f10))
(assert (forall ((?v0 S5) (?v1 S5)) (= (f7 (f8 f9 (f7 f98 ?v0)) ?v1) (f7 f98 (f7 (f8 f9 ?v0) ?v1)))))
(assert (forall ((?v0 S5) (?v1 S5)) (=> (= (f7 f98 ?v0) (f7 f98 ?v1)) (= ?v0 ?v1))))
(assert (forall ((?v0 S2) (?v1 S2)) (= (f3 (f4 f5 ?v0) ?v1) (f3 (f4 f5 ?v1) ?v0))))
(assert (forall ((?v0 S5) (?v1 S5)) (= (f7 (f8 f9 ?v0) ?v1) (f7 (f8 f9 ?v1) ?v0))))
(assert (forall ((?v0 S20) (?v1 S20)) (= (f27 (f28 f29 ?v0) ?v1) (f27 (f28 f29 ?v1) ?v0))))
(assert (forall ((?v0 S17) (?v1 S17)) (= (f23 (f24 f25 ?v0) ?v1) (f23 (f24 f25 ?v1) ?v0))))
(assert (forall ((?v0 S11) (?v1 S11)) (= (f15 (f16 f17 ?v0) ?v1) (f15 (f16 f17 ?v1) ?v0))))
(assert (forall ((?v0 S8) (?v1 S8)) (= (f11 (f12 f13 ?v0) ?v1) (f11 (f12 f13 ?v1) ?v0))))
(assert (not (forall ((?v0 S5) (?v1 S2) (?v2 S2) (?v3 S8)) (=> (not (= ?v1 f6)) (=> (not (= (f3 (f4 f5 ?v2) (f3 (f4 f99 ?v1) (f3 (f55 f56 ?v3) ?v1))) f6)) (=> (not (= ?v2 f6)) (=> (= (f7 (f8 f9 (ite (= ?v3 f14) f10 (f7 f98 (f57 f85 ?v3)))) ?v0) (f57 f85 f100)) (=> (forall ((?v4 S2)) (= (f3 (f55 f56 f100) ?v4) (f3 (f4 f99 (f101 (f102 f103 ?v4) ?v0)) (f3 (f4 f5 ?v2) (f3 (f4 f99 ?v4) (f3 (f55 f56 ?v3) ?v4)))))) (=> (not (= f100 f14)) (exists ((?v4 S8)) (let ((?v_1 (f57 f85 f100)) (?v_0 (= ?v4 f14))) (and (=> ?v_0 (and (= ?v0 ?v_1) (forall ((?v5 S2)) (let ((?v_2 (= ?v5 f6))) (or ?v_2 (or (and ?v_2 (= (f104 f10 ?v0) f1)) (or ?v_2 (= (f3 (f55 f56 ?v3) ?v5) f6)))))))) (=> (not ?v_0) (and (= (f7 f98 (f7 (f8 f9 (f57 f85 ?v4)) ?v0)) ?v_1) (forall ((?v5 S2)) (let ((?v_3 (= ?v5 f6))) (or ?v_3 (or (and ?v_3 (= (f104 f10 ?v0) f1)) (or ?v_3 (= (f3 (f55 f56 ?v3) ?v5) (f3 (f55 f56 ?v4) ?v5)))))))))))))))))))))
(check-sat)
(exit)
